
List of user-set options:

                                    Name   Value                used
                           linear_solver = mumps                 yes
                  ma57_automatic_scaling = yes                    no
                                max_iter = 10000                 yes
                             mu_strategy = adaptive              yes
                             output_file = DynamicOptimization_lMtildeState_actdyn_GPOPS_IPOPTinfo.txt  yes
                             print_level = 5                     yes
                      print_user_options = yes                   yes
                                     tol = 1e-006                yes
This is Ipopt version 3.11.0, running with linear solver mumps.

Number of nonzeros in equality constraint Jacobian...:    37171
Number of nonzeros in inequality constraint Jacobian.:     7596
Number of nonzeros in Lagrangian Hessian.............:    13860

Total number of variables............................:     8209
                     variables with only lower bounds:        0
                variables with lower and upper bounds:     8209
                     variables with only upper bounds:        0
Total number of equality constraints.................:     6301
Total number of inequality constraints...............:     3799
        inequality constraints with only lower bounds:     1890
   inequality constraints with lower and upper bounds:       19
        inequality constraints with only upper bounds:     1890

iter    objective    inf_pr   inf_du lg(mu)  ||d||  lg(rg) alpha_du alpha_pr  ls
   0 9.9999900e-003 7.37e-001 1.00e+000   0.0 0.00e+000    -  0.00e+000 0.00e+000   0
   1 4.4061256e-001 1.99e+002 1.05e+003  -0.4 2.33e+001    -  9.24e-002 1.00e+000f  1
   2 1.1628024e+000 1.80e+002 1.47e+003   0.7 1.30e+001   2.0 1.29e-001 6.12e-002f  1
   3 3.1279105e+000 1.69e+002 1.34e+003   0.7 2.54e+001   1.5 6.06e-002 7.74e-002f  1
   4 1.4744242e+001 1.18e+002 1.28e+004   0.7 2.63e+001   1.9 9.95e-001 4.41e-001f  1
   5 2.2008954e+001 8.03e+001 1.04e+004   0.7 1.73e+001   2.4 1.83e-001 4.20e-001f  1
   6 2.3411800e+001 6.89e+001 9.07e+003   0.7 8.97e+000   2.8 2.89e-001 1.56e-001h  1
   7 2.4691001e+001 5.89e+001 7.19e+003   0.7 7.36e+000   2.3 3.64e-001 1.74e-001h  1
   8 3.0677007e+001 1.81e+001 4.73e+004   0.7 5.99e+000   1.8 2.48e-001 1.00e+000f  1
   9 2.9653997e+001 3.68e+000 8.27e+003   2.2 1.02e+000   3.2 8.19e-001 1.00e+000f  1
iter    objective    inf_pr   inf_du lg(mu)  ||d||  lg(rg) alpha_du alpha_pr  ls
  10 2.9636827e+001 4.62e-001 1.87e+004   2.0 8.59e-001   3.6 9.90e-001 1.00e+000f  1
  11 2.7482941e+001 6.84e-001 9.18e+003  -4.0 8.32e+000    -  5.24e-001 1.00e+000f  1
  12 2.7523210e+001 7.29e-002 2.24e+002   0.6 6.89e-002   3.1 9.99e-001 1.00e+000f  1
  13 2.7527630e+001 1.56e-004 6.84e+000  -1.3 8.10e-003   2.6 9.94e-001 1.00e+000h  1
  14 2.7524650e+001 8.60e-005 4.41e-001  -3.0 2.98e-003   2.2 1.00e+000 1.00e+000h  1
  15 2.7515661e+001 7.84e-004 4.43e-001  -4.9 8.99e-003   1.7 1.00e+000 1.00e+000f  1
  16 2.7489398e+001 6.36e-003 4.32e-001  -6.6 2.63e-002   1.2 1.00e+000 1.00e+000f  1
  17 2.7416300e+001 4.26e-002 4.01e-001  -8.1 7.31e-002   0.7 1.00e+000 1.00e+000f  1
  18 2.7233489e+001 1.92e-001 3.34e-001  -9.5 1.83e-001   0.3 1.00e+000 1.00e+000f  1
  19 2.6993799e+001 1.56e+001 2.06e+000  -8.0 7.23e+000  -0.2 1.00e+000 1.46e-001f  1
iter    objective    inf_pr   inf_du lg(mu)  ||d||  lg(rg) alpha_du alpha_pr  ls
  20 2.6974907e+001 1.41e+001 1.86e+000  -6.0 2.69e-001   0.2 1.00e+000 9.88e-002h  1
  21 2.6547960e+001 9.07e-001 2.94e-001  -5.3 4.27e-001  -0.3 1.00e+000 1.00e+000h  1
  22 2.6525933e+001 7.57e-001 2.50e-001  -4.5 1.63e-001   0.2 1.00e+000 1.66e-001h  1
  23 2.5952315e+001 1.80e+001 6.73e+000  -4.2 7.98e-001  -0.3 1.00e+000 1.00e+000f  1
  24 2.5629306e+001 3.26e+001 1.02e+001  -3.3 6.42e+000  -0.8 6.85e-001 2.67e-001h  1
  25 2.3633137e+001 1.68e+000 1.68e+000  -3.2 2.00e+000  -1.3 1.00e+000 1.00e+000h  1
  26 2.3246437e+001 1.69e+001 8.53e+000  -2.3 7.24e-001   0.1 6.23e-001 1.00e+000h  1
  27 2.3173155e+001 4.28e+000 3.24e+000  -2.3 1.25e+000  -0.4 1.00e+000 1.00e+000h  1
  28 2.2469657e+001 2.59e+000 1.17e+000  -2.0 1.84e+000  -0.9 1.00e+000 8.69e-001f  1
  29 2.0775933e+001 3.00e+000 2.01e+000  -2.4 2.61e+000  -1.4 9.40e-001 6.50e-001f  1
iter    objective    inf_pr   inf_du lg(mu)  ||d||  lg(rg) alpha_du alpha_pr  ls
  30 1.8725248e+001 2.53e+001 3.02e+000  -3.0 6.26e+000  -1.9 4.66e-001 3.28e-001f  1
  31 1.8493393e+001 2.34e+001 2.96e+000  -8.6 1.26e+001  -2.3 1.34e-002 1.84e-002f  1
  32 1.7712071e+001 1.15e+001 1.80e+000  -3.4 8.41e-001  -1.0 6.57e-001 1.00e+000h  1
  33 1.5488861e+001 1.06e+000 1.22e+000  -2.9 2.22e+000  -1.5 3.60e-001 1.00e+000f  1
  34 1.5274147e+001 2.66e+000 1.21e+000  -2.7 2.48e+000  -1.1 9.72e-001 2.72e-001h  1
  35 1.3214665e+001 1.96e+001 1.77e+001  -2.2 2.06e+000  -1.5 1.00e+000 1.00e+000f  1
  36 1.3252325e+001 4.17e+000 5.81e+000  -2.4 6.77e-001  -0.2 1.00e+000 1.00e+000h  1
  37 1.3106742e+001 1.57e+000 1.66e+000  -2.9 2.07e-001  -0.7 1.00e+000 1.00e+000h  1
  38 1.2321881e+001 2.29e-001 9.41e-002  -3.9 7.85e-001  -1.2 1.00e+000 1.00e+000f  1
  39 1.0315760e+001 2.02e+000 8.18e-001  -3.2 2.01e+000  -1.6 1.00e+000 1.00e+000f  1
iter    objective    inf_pr   inf_du lg(mu)  ||d||  lg(rg) alpha_du alpha_pr  ls
  40 9.5986052e+000 5.30e+000 7.59e+000  -3.4 7.17e-001  -1.2 9.99e-001 1.00e+000h  1
  41 9.6647188e+000 4.36e+000 3.07e+000  -3.5 5.91e-001   0.1 1.00e+000 1.00e+000h  1
  42 9.5577312e+000 2.41e+000 1.61e+000  -4.1 2.25e-001  -0.4 1.00e+000 1.00e+000h  1
  43 9.3591362e+000 8.79e-001 4.99e-001  -3.8 2.82e-001  -0.8 1.00e+000 9.43e-001h  1
  44 9.1230758e+000 1.21e+000 4.82e-001  -3.4 2.60e+000  -1.3 1.00e+000 3.33e-001f  1
  45 7.5680558e+000 1.39e+000 2.27e-001  -3.8 1.85e+000  -1.8 1.00e+000 8.42e-001f  1
  46 6.7092467e+000 1.03e+000 1.67e-001  -3.5 3.25e+000  -2.3 1.00e+000 2.64e-001f  1
  47 5.5136852e+000 8.11e-001 1.28e-001  -4.1 5.22e+000  -2.7 8.45e-001 2.29e-001f  1
  48 5.2696479e+000 4.14e-002 9.52e-003  -3.7 2.44e-001  -1.4 1.00e+000 1.00e+000h  1
  49 4.8802798e+000 2.66e-002 1.06e-002  -4.6 9.31e-001  -1.9 1.00e+000 4.18e-001f  1
iter    objective    inf_pr   inf_du lg(mu)  ||d||  lg(rg) alpha_du alpha_pr  ls
  50 4.5857841e+000 1.31e-002 1.14e-002  -5.2 3.31e-001  -1.5 1.00e+000 8.89e-001f  1
  51 4.2700766e+000 1.57e-002 2.55e-001  -4.7 7.92e-001  -1.9 1.00e+000 3.99e-001f  1
  52 4.0640925e+000 9.40e-003 8.73e-002  -4.7 2.76e-001  -1.5 1.00e+000 7.47e-001h  1
  53 3.8937050e+000 1.06e-002 3.76e-002  -5.5 7.01e-001  -2.0 1.00e+000 2.43e-001f  1
  54 3.8494818e+000 9.12e-003 1.44e-002  -5.0 2.63e-001  -1.6 1.00e+000 1.70e-001h  1
  55 3.5526084e+000 1.59e-002 4.70e-002  -4.7 7.12e-001  -2.0 1.00e+000 4.32e-001f  1
  56 3.4240662e+000 9.10e-003 6.77e-003  -4.3 2.77e-001  -1.6 1.00e+000 5.62e-001h  1
  57 3.2517205e+000 1.05e-002 9.54e-002  -5.0 7.14e-001  -2.1 1.00e+000 2.86e-001f  1
  58 3.1401183e+000 7.27e-003 3.09e-002  -5.0 2.82e-001  -1.7 1.00e+000 5.00e-001h  1
  59 2.9908820e+000 8.64e-003 8.73e-002  -5.7 7.35e-001  -2.1 1.00e+000 2.66e-001f  1
iter    objective    inf_pr   inf_du lg(mu)  ||d||  lg(rg) alpha_du alpha_pr  ls
  60 2.9094057e+000 6.45e-003 2.73e-002  -5.1 2.91e-001  -1.7 1.00e+000 3.92e-001h  1
  61 2.8403183e+000 1.65e-003 5.67e-003  -5.5 1.10e-001  -1.3 1.00e+000 9.26e-001h  1
  62 2.8144975e+000 1.64e-003 3.16e-002  -6.1 2.76e-001  -1.8 1.00e+000 1.22e-001f  1
  63 2.7936220e+000 1.36e-003 4.84e-003  -5.8 1.09e-001  -1.3 1.00e+000 2.58e-001h  1
  64 2.7075683e+000 3.16e-003 1.72e-002  -6.8 3.12e-001  -1.8 1.00e+000 3.79e-001f  1
  65 2.6543116e+000 2.33e-003 4.81e-003  -6.0 1.20e-001  -1.4 1.00e+000 6.46e-001h  1
  66 2.6456888e+000 2.27e-003 3.68e-002  -6.1 3.31e-001  -1.9 1.00e+000 3.84e-002h  1
  67 2.6205491e+000 1.92e-003 7.25e-003  -6.1 1.32e-001  -1.4 1.00e+000 2.88e-001h  1
  68 2.5867118e+000 2.18e-003 3.79e-002  -6.2 3.71e-001  -1.9 1.00e+000 1.41e-001f  1
  69 2.5536828e+000 2.00e-003 8.90e-003  -6.0 1.47e-001  -1.5 1.00e+000 3.62e-001h  1
iter    objective    inf_pr   inf_du lg(mu)  ||d||  lg(rg) alpha_du alpha_pr  ls
  70 2.5296548e+000 2.12e-003 4.00e-002  -5.7 4.08e-001  -2.0 1.00e+000 9.77e-002f  1
  71 2.5027077e+000 1.99e-003 1.47e-002  -6.8 1.64e-001  -1.5 1.00e+000 2.82e-001h  1
  72 2.4652118e+000 2.60e-003 3.76e-002  -6.4 4.49e-001  -2.0 1.00e+000 1.46e-001f  1
  73 2.4490779e+000 2.37e-003 1.55e-002  -6.4 1.79e-001  -1.6 1.00e+000 1.63e-001h  1
  74 2.4139885e+000 2.96e-003 3.34e-002  -6.0 5.54e-001  -2.1 1.00e+000 1.32e-001f  1
  75 2.3922585e+000 2.74e-003 1.35e-002  -6.3 1.99e-001  -1.6 1.00e+000 2.12e-001h  1
  76 2.3516855e+000 3.83e-003 2.29e-002  -5.4 5.43e-001  -2.1 1.00e+000 1.51e-001f  1
  77 2.2922096e+000 4.40e-002 1.39e-001  -4.6 6.99e+000  -2.6 1.00e+000 9.58e-002f  1
  78 2.0762667e+000 3.96e-002 1.48e-001  -3.6 2.50e+000  -3.1 8.73e-001 2.03e-001f  1
  79 1.8414568e+000 1.67e-001 1.20e-001  -3.4 1.36e+000  -2.7 1.00e+000 6.38e-001f  1
iter    objective    inf_pr   inf_du lg(mu)  ||d||  lg(rg) alpha_du alpha_pr  ls
  80 1.6988950e+000 4.79e-001 6.70e-002  -3.6 4.10e-001  -2.2 9.92e-001 1.00e+000h  1
  81 1.3942980e+000 1.41e-001 6.13e-002  -4.2 9.96e-001  -2.7 9.97e-001 9.07e-001h  1
  82 1.1312104e+000 3.88e-002 2.96e-002  -4.2 2.24e+000  -3.2 1.00e+000 5.87e-001h  1
  83 7.0399043e-001 1.05e-001 1.72e-002  -3.9 4.44e+000  -3.7 1.00e+000 7.62e-001h  1
  84 4.2096430e-001 2.69e-001 1.37e-002  -4.1 5.56e+000  -4.1 9.67e-001 8.57e-001h  1
  85 4.5075408e-001 1.15e-001 1.15e-002  -4.5 1.74e+000  -3.7 1.03e-001 5.91e-001h  1
  86 4.7970155e-001 1.37e+000 2.65e-001  -3.6 6.11e+000  -4.2 5.89e-001 7.91e-001h  1
  87 4.7405915e-001 1.25e+000 2.23e-001  -3.8 1.44e+001    -  5.67e-001 1.16e-001h  1
  88 4.7016483e-001 8.54e-001 1.67e+000  -3.8 1.49e+001  -4.7 2.81e-001 1.00e+000f  1
  89 4.7913088e-001 3.77e-001 3.36e-001  -3.8 2.23e+000  -4.2 7.66e-001 8.17e-001h  1
iter    objective    inf_pr   inf_du lg(mu)  ||d||  lg(rg) alpha_du alpha_pr  ls
  90 4.7895370e-001 1.12e-001 1.23e-001  -4.0 9.07e-001  -3.8 6.34e-001 9.15e-001h  1
  91 4.7334128e-001 3.84e-002 1.51e-002  -4.4 3.35e-001  -3.4 1.00e+000 1.00e+000h  1
  92 4.6859943e-001 7.14e-003 1.61e-002  -4.5 4.41e-001  -3.9 9.78e-001 1.00e+000h  1
  93 4.6689082e-001 5.83e-003 6.58e-003  -4.2 2.65e+000  -4.3 1.00e+000 2.17e-001h  1
  94 4.8720071e-001 1.03e+000 1.48e-002  -3.9 3.03e+001    -  4.94e-001 4.00e-001h  1
  95 4.7955459e-001 2.71e-001 1.54e-002  -4.1 4.21e+000  -4.8 1.00e+000 1.00e+000h  1
  96 4.7880862e-001 2.56e-001 1.45e-002  -4.1 1.20e+001  -5.3 7.16e-002 5.76e-002h  2
  97 4.7797425e-001 1.36e-002 6.05e-003  -4.1 4.21e-001  -4.0 1.00e+000 1.00e+000h  1
  98 4.7762422e-001 6.98e-003 1.01e-003  -4.1 1.63e-001  -3.5 1.00e+000 1.00e+000h  1
  99 4.4087951e-001 3.42e-001 4.14e-002 -10.1 1.65e+002    -  5.26e-002 2.72e-001f  1
iter    objective    inf_pr   inf_du lg(mu)  ||d||  lg(rg) alpha_du alpha_pr  ls
 100 4.3537581e-001 2.17e-001 2.52e-002  -4.2 2.80e+001    -  9.58e-001 9.92e-001h  1
 101 4.2779793e-001 4.62e-003 1.22e-003  -5.3 3.09e-001  -4.0 9.89e-001 1.00e+000h  1
 102 4.2481116e-001 1.52e-003 5.12e-004  -6.2 1.81e-001  -3.6 9.95e-001 1.00e+000h  1
 103 4.1961915e-001 6.19e-003 6.23e-004  -6.2 5.42e-001  -4.1 1.00e+000 6.17e-001h  1
 104 4.1729098e-001 7.17e-004 1.64e-004  -5.6 1.76e-001  -3.6 1.00e+000 9.30e-001h  1
 105 4.1428857e-001 8.50e-004 2.30e-003  -5.9 5.41e-001  -4.1 1.00e+000 4.19e-001h  1
 106 4.1044866e-001 3.59e-002 9.40e-003  -4.9 1.85e+000  -4.6 7.34e-001 4.20e-001f  1
 107 4.0211714e-001 6.76e-002 4.90e-003  -4.7 1.42e+000  -5.1 1.00e+000 8.99e-001h  1
 108 3.7904675e-001 6.26e-002 4.50e-003  -4.9 2.47e+000  -5.6 1.00e+000 9.94e-001h  1
 109 3.7915661e-001 1.80e-001 5.70e-003  -4.7 2.86e+001    -  1.00e+000 6.42e-001h  1
iter    objective    inf_pr   inf_du lg(mu)  ||d||  lg(rg) alpha_du alpha_pr  ls
 110 3.6491436e-001 5.56e-002 2.97e-003  -5.0 9.61e+000    -  1.00e+000 1.00e+000h  1
 111 3.5391820e-001 5.76e-002 2.34e-003  -5.4 1.36e+001    -  9.96e-001 1.00e+000h  1
 112 3.5096115e-001 2.52e-002 6.33e-004  -5.6 1.17e+001    -  1.00e+000 1.00e+000h  1
 113 3.4873735e-001 8.65e-003 3.93e-004  -5.9 1.03e+000  -6.0 1.00e+000 1.00e+000h  1
 114 3.4854103e-001 2.94e-003 2.64e-004  -5.9 5.47e+000  -6.5 9.20e-001 1.00e+000h  1
 115 3.5015132e-001 8.21e-003 6.40e-004  -5.7 4.84e+000  -7.0 9.66e-001 1.00e+000h  1
 116 3.5008878e-001 7.72e-003 1.01e-003  -5.8 1.38e+002  -7.5 4.44e-002 6.02e-002h  1
 117 3.4933660e-001 1.81e-003 2.57e-004  -5.8 2.93e+000    -  1.00e+000 1.00e+000f  1
 118 3.4901618e-001 4.61e-004 2.70e-004  -5.8 2.13e+000    -  1.00e+000 9.84e-001h  1
 119 3.4700297e-001 1.14e-002 3.35e-004  -6.5 2.65e+000    -  9.98e-001 9.96e-001h  1
iter    objective    inf_pr   inf_du lg(mu)  ||d||  lg(rg) alpha_du alpha_pr  ls
 120 3.4692555e-001 9.60e-004 7.08e-004  -6.6 1.12e+000    -  1.00e+000 1.00e+000h  1
 121 3.4663281e-001 8.93e-004 1.99e-004  -7.0 9.98e-001    -  1.00e+000 9.99e-001h  1
 122 3.4653062e-001 2.77e-004 1.97e-004  -7.5 1.07e+000    -  1.00e+000 1.00e+000h  1
 123 3.4650964e-001 3.47e-005 2.26e-005  -7.8 8.18e-001    -  1.00e+000 1.00e+000h  1
 124 3.4650291e-001 3.60e-006 6.21e-006  -7.9 3.35e-001    -  9.97e-001 1.00e+000h  1
 125 3.4649096e-001 5.99e-006 2.15e-005  -8.5 4.55e-001    -  1.00e+000 9.22e-001h  1
 126 3.4648920e-001 1.24e-006 2.33e-007  -8.6 2.25e-001    -  1.00e+000 1.00e+000h  1

Number of Iterations....: 126

                                   (scaled)                 (unscaled)
Objective...............:  3.4648919906602527e-001   3.4648919906602527e-001
Dual infeasibility......:  2.3346781195303802e-007   2.3346781195303802e-007
Constraint violation....:  8.8346259308202946e-008   1.2447234869483736e-006
Complementarity.........:  4.9910830919660603e-009   4.9910830919660603e-009
Overall NLP error.......:  2.3346781195303802e-007   1.2447234869483736e-006


Number of objective function evaluations             = 129
Number of objective gradient evaluations             = 127
Number of equality constraint evaluations            = 129
Number of inequality constraint evaluations          = 129
Number of equality constraint Jacobian evaluations   = 127
Number of inequality constraint Jacobian evaluations = 127
Number of Lagrangian Hessian evaluations             = 126
Total CPU secs in IPOPT (w/o function evaluations)   =     12.278
Total CPU secs in NLP function evaluations           =      2.429

EXIT: Optimal Solution Found.
